(set-option :print-success false)
(set-logic QF_UF)
(declare-sort x43 0)
(declare-sort x132 0)
(declare-fun x51 () x132)
(declare-fun x108 () x132)
(declare-fun x139 (x132 x132) x132)
(declare-fun x117 () x132)
(declare-fun x141 (x132 x132) x132)
(declare-fun x41 () x132)
(declare-fun x114 () x132)
(assert (let ((x149 (x141 x117 x51)) (x110 (x141 x108 x117)) (x115 (x141 x51 x117)) (x37 (x141 x108 x51)) (x68 (x141 x108 x41)) (x137 (x141 x114 x41)) (x91 (x141 x51 x41)) (x9 (x141 x117 x117)) (x131 (x141 x41 x114)) (x124 (x141 x117 x114)) (x83 (x141 x114 x108)) (x97 (x141 x117 x108)) (x55 (x141 x108 x108)) (x158 (x141 x41 x51)) (x93 (x141 x108 x114)) (x66 (x141 x41 x108)) (x152 (x141 x117 x41)) (x122 (x141 x114 x114)) (x39 (x141 x51 x114)) (x56 (x141 x51 x108)) (x133 (x141 x41 x117)) (x74 (x141 x114 x117)) (x155 (x141 x51 x51)) (x100 (x141 x114 x51)) (x30 (x141 x41 x41))) (and (and (and (and (and (and (and (and (or (or (or (= x122 x117) (or (= x122 x51) (= x122 x114))) (= x108 x122)) (= x122 x41)) (or (= x100 x41) (or (= x108 x100) (or (= x100 x117) (or (= x100 x114) (= x51 x100)))))) (or (or (or (= x74 x117) (or (= x74 x51) (= x114 x74))) (= x108 x74)) (= x41 x74))) (or (or (or (= x117 x83) (or (= x83 x114) (= x83 x51))) (= x83 x108)) (= x83 x41))) (or (= x137 x41) (or (or (= x117 x137) (or (= x51 x137) (= x114 x137))) (= x137 x108)))) (and (or (= x91 x41) (or (= x108 x91) (or (or (= x91 x51) (= x91 x114)) (= x117 x91)))) (and (and (or (or (= x108 x115) (or (= x117 x115) (or (= x115 x51) (= x114 x115)))) (= x41 x115)) (and (or (= x41 x155) (or (= x108 x155) (or (= x117 x155) (or (= x155 x114) (= x155 x51))))) (or (= x39 x41) (or (= x39 x108) (or (= x39 x117) (or (= x39 x114) (= x51 x39))))))) (or (or (= x108 x56) (or (= x117 x56) (or (= x51 x56) (= x114 x56)))) (= x56 x41))))) (and (or (or (or (= x117 x152) (or (= x114 x152) (= x152 x51))) (= x152 x108)) (= x41 x152)) (and (or (= x97 x41) (or (= x108 x97) (or (= x97 x117) (or (= x51 x97) (= x114 x97))))) (and (or (or (= x108 x9) (or (or (= x9 x51) (= x114 x9)) (= x9 x117))) (= x9 x41)) (and (or (or (or (or (= x149 x51) (= x149 x114)) (= x117 x149)) (= x149 x108)) (= x41 x149)) (or (= x41 x124) (or (or (= x124 x117) (or (= x51 x124) (= x124 x114))) (= x108 x124)))))))) (and (and (and (and (or (or (= x108 x37) (or (= x117 x37) (or (= x37 x114) (= x51 x37)))) (= x37 x41)) (or (or (= x108 x93) (or (= x93 x117) (or (= x93 x114) (= x93 x51)))) (= x41 x93))) (or (= x110 x41) (or (= x110 x108) (or (or (= x110 x51) (= x114 x110)) (= x117 x110))))) (or (= x55 x41) (or (or (or (= x55 x51) (= x55 x114)) (= x117 x55)) (= x55 x108)))) (or (= x68 x41) (or (or (= x117 x68) (or (= x68 x114) (= x51 x68))) (= x108 x68))))) (and (and (and (or (or (or (= x117 x133) (or (= x51 x133) (= x114 x133))) (= x108 x133)) (= x41 x133)) (and (or (or (= x108 x131) (or (= x131 x117) (or (= x131 x114) (= x131 x51)))) (= x41 x131)) (or (or (= x108 x158) (or (or (= x158 x114) (= x51 x158)) (= x117 x158))) (= x41 x158)))) (or (= x66 x41) (or (= x108 x66) (or (= x66 x117) (or (= x51 x66) (= x114 x66)))))) (or (= x30 x41) (or (or (or (= x51 x30) (= x30 x114)) (= x30 x117)) (= x108 x30)))))))
(assert (or (and (and (and (not (= x117 (x141 x41 x117))) (and (not (= (x141 x41 x114) x114)) (not (= x51 (x141 x41 x51))))) (not (= x108 (x141 x41 x108)))) (not (= (x141 x41 x41) x41))) (or (and (not (= (x141 x108 x41) x41)) (and (and (not (= (x141 x108 x117) x117)) (and (not (= x114 (x141 x108 x114))) (not (= x51 (x141 x108 x51))))) (not (= x108 (x141 x108 x108))))) (or (and (not (= (x141 x117 x41) x41)) (and (and (not (= (x141 x117 x117) x117)) (and (not (= x114 (x141 x117 x114))) (not (= x51 (x141 x117 x51))))) (not (= x108 (x141 x117 x108))))) (or (and (not (= (x141 x51 x41) x41)) (and (and (and (not (= (x141 x51 x51) x51)) (not (= x114 (x141 x51 x114)))) (not (= x117 (x141 x51 x117)))) (not (= x108 (x141 x51 x108))))) (and (not (= (x141 x114 x41) x41)) (and (not (= (x141 x114 x108) x108)) (and (and (not (= (x141 x114 x114) x114)) (not (= x51 (x141 x114 x51)))) (not (= (x141 x114 x117) x117))))))))))
(assert (let ((x158 (x141 x51 x41)) (x33 (x141 x41 x51)) (x21 (x141 x41 x108)) (x156 (x141 x41 x41)) (x137 (x141 x114 x108)) (x39 (x141 x114 x41)) (x18 (x141 x117 x117)) (x56 (x141 x117 x114)) (x74 (x141 x114 x51)) (x68 (x141 x51 x117)) (x100 (x141 x114 x114)) (x131 (x141 x51 x108)) (x83 (x141 x114 x117)) (x91 (x141 x108 x114)) (x103 (x141 x108 x108)) (x42 (x141 x108 x41)) (x107 (x141 x108 x117)) (x3 (x141 x41 x117)) (x92 (x141 x117 x41)) (x115 (x141 x51 x114)) (x124 (x141 x41 x114)) (x35 (x141 x108 x51)) (x55 (x141 x51 x51)) (x76 (x141 x117 x108)) (x30 (x141 x117 x51))) (let ((x34 (= x108 x55)) (x144 (= x41 x76)) (x8 (= x108 x18)) (x75 (= x41 x74)) (x93 (= x74 x114)) (x13 (= x124 x41)) (x15 (= x158 x117)) (x6 (= x114 x68)) (x1 (= x56 x117)) (x77 (= x35 x114)) (x159 (= x158 x108)) (x126 (= x51 x156)) (x25 (= x114 x42)) (x11 (= x92 x117)) (x135 (= x91 x51)) (x111 (= x108 x68)) (x36 (= x108 x76)) (x40 (= x108 x3)) (x46 (= x41 x103)) (x26 (= x117 x42)) (x61 (= x51 x103)) (x106 (= x51 x18)) (x81 (= x41 x131)) (x78 (= x108 x92)) (x140 (= x68 x51)) (x23 (= x76 x51)) (x98 (= x51 x21)) (x90 (= x51 x158)) (x86 (= x131 x117)) (x66 (= x55 x51)) (x45 (= x137 x114)) (x57 (= x92 x114)) (x32 (= x117 x55)) (x154 (= x131 x108)) (x22 (= x35 x108)) (x24 (= x39 x108)) (x31 (= x30 x41)) (x123 (= x114 x107)) (x38 (= x83 x114)) (x125 (= x51 x3)) (x109 (= x76 x114)) (x29 (= x42 x51)) (x122 (= x114 x100)) (x142 (= x33 x51)) (x116 (= x42 x41)) (x129 (= x39 x51)) (x65 (= x114 x156)) (x44 (= x114 x56)) (x84 (= x108 x30)) (x151 (= x33 x41)) (x71 (= x68 x41)) (x119 (= x51 x92)) (x49 (= x117 x83)) (x130 (= x18 x41)) (x70 (= x117 x107)) (x50 (= x103 x117)) (x102 (= x108 x103)) (x152 (= x115 x114)) (x64 (= x108 x137)) (x69 (= x76 x117)) (x37 (= x55 x114)) (x7 (= x3 x114)) (x2 (= x68 x117)) (x5 (= x124 x51)) (x105 (= x30 x114)) (x10 (= x74 x117)) (x136 (= x114 x103)) (x143 (= x35 x117)) (x149 (= x100 x117)) (x72 (= x158 x41)) (x145 (= x83 x41)) (x127 (= x108 x156)) (x9 (= x108 x100)) (x80 (= x137 x117)) (x54 (= x114 x124)) (x112 (= x91 x108)) (x28 (= x117 x33)) (x128 (= x21 x114)) (x133 (= x51 x74)) (x52 (= x114 x131)) (x88 (= x35 x51)) (x12 (= x108 x107)) (x62 (= x117 x115)) (x113 (= x117 x91)) (x101 (= x33 x108)) (x4 (= x107 x41)) (x97 (= x41 x100)) (x118 (= x114 x33)) (x147 (= x41 x91)) (x63 (= x21 x117)) (x134 (= x41 x92)) (x95 (= x108 x124)) (x146 (= x51 x30)) (x59 (= x117 x39)) (x120 (= x56 x51)) (x148 (= x18 x114)) (x138 (= x39 x41)) (x96 (= x83 x51)) (x20 (= x56 x108)) (x155 (= x51 x100)) (x67 (= x158 x114)) (x27 (= x83 x108)) (x157 (= x41 x115)) (x16 (= x114 x39)) (x82 (= x18 x117)) (x89 (= x41 x35)) (x47 (= x51 x107)) (x48 (= x137 x51)) (x104 (= x21 x108)) (x150 (= x41 x156)) (x73 (= x41 x21)) (x85 (= x156 x117)) (x94 (= x108 x115)) (x58 (= x117 x124)) (x87 (= x117 x3)) (x79 (= x108 x42)) (x110 (= x51 x115)) (x60 (= x30 x117)) (x99 (= x55 x41)) (x121 (= x41 x3)) (x53 (= x56 x41)) (x19 (= x114 x91)) (x17 (= x137 x41)) (x14 (= x131 x51)) (x153 (= x74 x108))) (and (and (and (and (and (and (and (or (or (or x20 (or x94 x9)) x112) x95) (or (or (or x27 (or x153 x9)) x64) x24)) (and (and (or (or x80 (or (or x10 x149) x49)) x59) (or (or x113 (or (or x149 x62) x1)) x58)) (and (and (or x129 (or x48 (or (or x155 x133) x96))) (or (or (or (or x155 x110) x120) x135) x5)) (and (or (or x19 (or x44 (or x152 x122))) x54) (or (or x45 (or (or x93 x122) x38)) x16))))) (and (or (or (or x145 (or x97 x75)) x17) x138) (or (or x147 (or (or x157 x97) x53)) x13))) (and (and (or (or x81 (or x71 (or x99 x157))) x72) (or (or (or (or x75 x99) x31) x89) x151)) (and (and (and (or (or x143 (or (or x32 x10) x60)) x28) (or (or (or (or x32 x62) x2) x86) x15)) (and (and (or (or (or x105 (or x93 x37)) x77) x118) (or (or (or x6 (or x152 x37)) x52) x67)) (and (or x90 (or x14 (or x140 (or x66 x110)))) (or x142 (or (or x146 (or x66 x133)) x88))))) (and (or x159 (or x154 (or (or x94 x34) x111))) (or x101 (or (or (or x34 x153) x84) x22)))))) (and (and (or (or (or x130 (or x71 x145)) x4) x121) (or (or x144 (or (or x31 x53) x130)) x134)) (and (and (and (and (or (or x47 (or (or x96 x140) x106)) x125) (or (or (or x106 (or x120 x146)) x23) x119)) (and (or x7 (or (or (or x38 x6) x148) x123)) (or (or (or (or x105 x44) x148) x109) x57))) (and (or x11 (or (or (or x60 x1) x82) x69)) (or (or x70 (or (or x49 x2) x82)) x87))) (and (or (or (or (or x27 x111) x8) x12) x40) (or (or (or x8 (or x20 x84)) x36) x78))))) (and (and (or (or (or x4 (or x89 x147)) x46) x116) (or x73 (or x46 (or (or x17 x81) x144)))) (and (and (and (or x26 (or x50 (or x70 (or x143 x113)))) (or (or (or x69 (or x80 x86)) x50) x63)) (and (and (or x29 (or x61 (or (or x135 x88) x47))) (or (or x61 (or x23 (or x14 x48))) x98)) (and (or x25 (or x136 (or x123 (or x19 x77)))) (or x128 (or (or x109 (or x45 x52)) x136))))) (and (or (or (or x12 (or x22 x112)) x102) x79) (or x104 (or x102 (or x36 (or x64 x154)))))))) (and (and (or x150 (or (or (or x72 x138) x134) x116)) (or x150 (or x73 (or (or x13 x151) x121)))) (and (and (or (or (or (or x95 x101) x40) x104) x127) (or x127 (or x79 (or (or x24 x159) x78)))) (and (and (or x85 (or (or (or x15 x59) x11) x26)) (or (or (or (or x28 x58) x87) x63) x85)) (and (and (or x65 (or (or (or x16 x67) x57) x25)) (or x65 (or (or x7 (or x118 x54)) x128))) (and (or (or (or (or x90 x129) x119) x29) x126) (or (or x98 (or x125 (or x5 x142))) x126))))))))))
(assert (let ((x71 (x141 x41 x108)) (x35 (x141 x114 x114)) (x135 (x141 x41 x41)) (x2 (x141 x41 x117)) (x76 (x141 x41 x51)) (x107 (x141 x117 x117)) (x18 (x141 x51 x41)) (x153 (x141 x114 x108)) (x157 (x141 x114 x41)) (x145 (x141 x108 x41)) (x75 (x141 x41 x114)) (x34 (x141 x108 x114)) (x148 (x141 x117 x51)) (x10 (x141 x51 x114)) (x60 (x141 x108 x117)) (x49 (x141 x117 x41)) (x6 (x141 x51 x117)) (x53 (x141 x108 x108)) (x62 (x141 x114 x51)) (x105 (x141 x51 x51)) (x94 (x141 x117 x114)) (x1 (x141 x117 x108)) (x32 (x141 x114 x117)) (x120 (x141 x51 x108)) (x146 (x141 x108 x51))) (let ((x126 (= x108 x71)) (x12 (= x117 x157)) (x137 (= x114 x94)) (x103 (= x10 x117)) (x59 (= x62 x41)) (x89 (= x117 x145)) (x115 (= x6 x114)) (x63 (= x41 x10)) (x121 (= x76 x41)) (x68 (= x18 x114)) (x33 (= x51 x35)) (x78 (= x41 x60)) (x133 (= x71 x114)) (x131 (= x114 x2)) (x96 (= x32 x51)) (x3 (= x107 x51)) (x150 (= x135 x41)) (x122 (= x35 x114)) (x56 (= x114 x107)) (x134 (= x41 x71)) (x109 (= x71 x51)) (x124 (= x153 x114)) (x86 (= x120 x117)) (x11 (= x94 x41)) (x28 (= x135 x108)) (x102 (= x49 x117)) (x136 (= x51 x145)) (x144 (= x108 x62)) (x82 (= x51 x34)) (x36 (= x2 x117)) (x92 (= x51 x94)) (x64 (= x76 x117)) (x100 (= x114 x10)) (x142 (= x108 x1)) (x79 (= x41 x1)) (x77 (= x76 x51)) (x54 (= x108 x94)) (x138 (= x2 x41)) (x140 (= x51 x148)) (x152 (= x1 x114)) (x159 (= x120 x41)) (x38 (= x51 x105)) (x93 (= x53 x114)) (x106 (= x51 x6)) (x24 (= x41 x146)) (x23 (= x117 x32)) (x127 (= x41 x53)) (x130 (= x75 x51)) (x46 (= x108 x105)) (x119 (= x108 x2)) (x30 (= x114 x135)) (x87 (= x35 x41)) (x151 (= x157 x41)) (x69 (= x117 x60)) (x129 (= x76 x108)) (x111 (= x60 x51)) (x147 (= x71 x117)) (x112 (= x53 x117)) (x95 (= x41 x6)) (x84 (= x146 x51)) (x158 (= x49 x114)) (x7 (= x148 x108)) (x104 (= x153 x41)) (x31 (= x51 x53)) (x55 (= x76 x114)) (x128 (= x108 x6)) (x57 (= x153 x108)) (x61 (= x148 x117)) (x14 (= x117 x94)) (x29 (= x49 x108)) (x50 (= x1 x117)) (x66 (= x145 x114)) (x45 (= x2 x51)) (x118 (= x32 x108)) (x110 (= x114 x157)) (x4 (= x117 x135)) (x25 (= x108 x146)) (x81 (= x108 x10)) (x80 (= x146 x117)) (x65 (= x108 x120)) (x9 (= x120 x114)) (x97 (= x114 x60)) (x155 (= x148 x114)) (x16 (= x108 x107)) (x85 (= x41 x148)) (x27 (= x120 x51)) (x123 (= x51 x18)) (x58 (= x145 x108)) (x44 (= x51 x62)) (x48 (= x105 x117)) (x88 (= x51 x135)) (x70 (= x153 x117)) (x47 (= x117 x35)) (x40 (= x34 x41)) (x156 (= x157 x108)) (x83 (= x114 x105)) (x154 (= x18 x117)) (x13 (= x75 x41)) (x99 (= x10 x51)) (x52 (= x49 x51)) (x67 (= x34 x108)) (x72 (= x41 x49)) (x42 (= x117 x62)) (x116 (= x145 x41)) (x20 (= x153 x51)) (x15 (= x41 x105)) (x149 (= x114 x146)) (x125 (= x53 x108)) (x8 (= x51 x1)) (x90 (= x108 x18)) (x143 (= x117 x34)) (x19 (= x157 x51)) (x39 (= x114 x32)) (x74 (= x114 x62)) (x113 (= x117 x107)) (x91 (= x114 x34)) (x5 (= x60 x108)) (x22 (= x117 x75)) (x73 (= x41 x18)) (x21 (= x6 x117)) (x37 (= x114 x75)) (x26 (= x32 x41)) (x17 (= x35 x108)) (x98 (= x108 x75)) (x101 (= x107 x41))) (and (or (or (or (or (and x127 (not x127)) (or (and (not x79) x78) (or (and (not x159) x24) (and x40 (not x104))))) (and (not x134) x116)) (or (or (or (and x73 (not x121)) (or (and x159 (not x24)) (or (and (not x85) x95) (or (and (not x15) x15) (and (not x59) x63))))) (or (or (or (and (not x11) x26) (or (and x59 (not x63)) (and x87 (not x87)))) (and x104 (not x40))) (and x151 (not x13)))) (or (and x72 (not x138)) (or (or (and x101 (not x101)) (or (and x85 (not x95)) (and (not x26) x11))) (and (not x78) x79))))) (or (or (and (not x116) x134) (or (and (not x72) x138) (or (and (not x73) x121) (and (not x151) x13)))) (and (not x150) x150))) (and (and (and (or (or (or (and (not x66) x133) (or (and (not x158) x131) (or (and x37 (not x110)) (and (not x68) x55)))) (and x30 (not x30))) (or (or (and x66 (not x133)) (or (or (and (not x152) x97) (or (and x91 (not x124)) (and (not x9) x149))) (and x93 (not x93)))) (or (or (or (or (and x9 (not x149)) (or (or (and x83 (not x83)) (and (not x74) x100)) (and (not x155) x115))) (and (not x55) x68)) (or (or (or (and x39 (not x137)) (or (and (not x122) x122) (and (not x100) x74))) (and (not x91) x124)) (and (not x37) x110))) (or (or (and (not x97) x152) (or (or (and (not x115) x155) (and x137 (not x39))) (and x56 (not x56)))) (and x158 (not x131)))))) (or (or (or (or (or (or (and x82 (not x20)) (and (not x27) x84)) (and x111 (not x8))) (and x31 (not x31))) (and (not x109) x136)) (or (or (or (and x19 (not x130)) (or (and (not x82) x20) (or (or (and x44 (not x99)) (and x33 (not x33))) (and (not x92) x96)))) (or (or (or (or (and x38 (not x38)) (and (not x44) x99)) (and (not x140) x106)) (and (not x84) x27)) (and (not x77) x123))) (or (or (and x8 (not x111)) (or (and (not x3) x3) (or (and x140 (not x106)) (and x92 (not x96))))) (and x52 (not x45))))) (or (and x88 (not x88)) (or (or (and (not x52) x45) (or (and x130 (not x19)) (and (not x123) x77))) (and x109 (not x136)))))) (or (or (or (or (or (or (or (and (not x21) x61) (and (not x23) x14)) (and x113 (not x113))) (and x50 (not x69))) (and (not x36) x102)) (or (or (and x154 (not x64)) (or (and x86 (not x80)) (or (or (and x103 (not x42)) (and (not x48) x48)) (and x21 (not x61))))) (or (or (and (not x143) x70) (or (or (and (not x103) x42) (and (not x47) x47)) (and x23 (not x14)))) (and (not x22) x12)))) (or (or (and x112 (not x112)) (or (and x69 (not x50)) (or (and (not x70) x143) (and x80 (not x86))))) (and (not x147) x89))) (or (and (not x4) x4) (or (and (not x89) x147) (or (and x36 (not x102)) (or (and x22 (not x12)) (and (not x154) x64))))))) (or (or (and (not x28) x28) (or (and (not x58) x126) (or (and x119 (not x29)) (or (and (not x90) x129) (and (not x156) x98))))) (or (or (or (or (or (and (not x65) x25) (and (not x57) x67)) (and x5 (not x142))) (and (not x125) x125)) (and (not x126) x58)) (or (or (or (and (not x98) x156) (or (and (not x67) x57) (or (and x118 (not x54)) (or (and x144 (not x81)) (and (not x17) x17))))) (or (and (not x129) x90) (or (or (and (not x7) x128) (or (and x46 (not x46)) (and (not x144) x81))) (and x65 (not x25))))) (or (and x29 (not x119)) (or (and (not x5) x142) (or (or (and x7 (not x128)) (and x54 (not x118))) (and x16 (not x16)))))))))))))
(assert (let ((x122 (x141 x114 x114)) (x97 (x141 x108 x117)) (x56 (x141 x117 x117)) (x30 (x141 x41 x41)) (x149 (x141 x108 x51)) (x9 (x141 x51 x108)) (x83 (x141 x51 x51)) (x100 (x141 x51 x114)) (x152 (x141 x117 x108)) (x137 (x141 x117 x114)) (x93 (x141 x108 x108)) (x110 (x141 x114 x41)) (x155 (x141 x117 x51)) (x66 (x141 x108 x41)) (x91 (x141 x108 x114)) (x55 (x141 x41 x51)) (x133 (x141 x41 x108)) (x124 (x141 x114 x108)) (x74 (x141 x114 x51)) (x115 (x141 x51 x117)) (x68 (x141 x51 x41)) (x37 (x141 x41 x114)) (x158 (x141 x117 x41)) (x131 (x141 x41 x117)) (x39 (x141 x114 x117))) (and (and (and (or (or (or (not (= x56 x56)) (or (not (= x39 x137)) (not (= x155 x115)))) (not (= x152 x97))) (not (= x131 x158))) (and (or (not (= x37 x110)) (or (not (= x124 x91)) (or (or (not (= x122 x122)) (not (= x100 x74))) (not (= x39 x137))))) (or (or (not (= x9 x149)) (or (or (not (= x83 x83)) (not (= x100 x74))) (not (= x115 x155)))) (not (= x55 x68))))) (or (or (or (or (not (= x124 x91)) (not (= x149 x9))) (not (= x97 x152))) (not (= x93 x93))) (not (= x133 x66)))) (or (not (= x30 x30)) (or (or (not (= x131 x158)) (or (not (= x68 x55)) (not (= x37 x110)))) (not (= x133 x66)))))))
(assert (let ((x137 (x141 x41 x41)) (x83 (x141 x108 x108)) (x74 (x141 x117 x117)) (x122 (x141 x114 x114)) (x100 (x141 x51 x51))) (or (= x41 (x141 x137 x137)) (or (or (or (= x51 (x141 x100 x100)) (= x114 (x141 x122 x122))) (= x117 (x141 x74 x74))) (= (x141 x83 x83) x108)))))
(assert (let ((x133 (x141 x41 x108)) (x115 (x141 x51 x117)) (x37 (x141 x41 x114)) (x56 (= x117 (x141 x117 x117))) (x158 (x141 x117 x41)) (x122 (= x114 (x141 x114 x114))) (x66 (x141 x108 x41)) (x39 (x141 x114 x117)) (x30 (= x41 (x141 x41 x41))) (x137 (x141 x117 x114)) (x131 (x141 x41 x117)) (x93 (= x108 (x141 x108 x108))) (x124 (x141 x114 x108)) (x149 (x141 x108 x51)) (x110 (x141 x114 x41)) (x83 (= (x141 x51 x51) x51)) (x155 (x141 x117 x51)) (x100 (x141 x51 x114)) (x55 (x141 x41 x51)) (x152 (x141 x117 x108)) (x91 (x141 x108 x114)) (x9 (x141 x51 x108)) (x68 (x141 x51 x41)) (x74 (x141 x114 x51)) (x97 (x141 x108 x117))) (or (or (and x30 x30) (or (or (or (and (= x41 x55) (= x68 x41)) (and (= x110 x41) (= x41 x37))) (and (= x158 x41) (= x131 x41))) (and (= x66 x41) (= x133 x41)))) (or (or (and (= x66 x108) (= x133 x108)) (or (and x93 x93) (or (or (and (= x124 x108) (= x108 x91)) (and (= x9 x108) (= x149 x108))) (and (= x108 x152) (= x108 x97))))) (or (or (or (and (= x37 x114) (= x110 x114)) (or (and (= x91 x114) (= x124 x114)) (or (or (and x122 x122) (and (= x114 x100) (= x114 x74))) (and (= x114 x39) (= x137 x114))))) (or (and (= x68 x51) (= x55 x51)) (or (and (= x51 x9) (= x51 x149)) (or (or (and x83 x83) (and (= x51 x100) (= x74 x51))) (and (= x115 x51) (= x51 x155)))))) (or (and (= x117 x131) (= x158 x117)) (or (and (= x97 x117) (= x117 x152)) (or (and x56 x56) (or (and (= x137 x117) (= x117 x39)) (and (= x117 x115) (= x155 x117)))))))))))
(assert (let ((x75 (x141 x41 x114)) (x10 (x141 x51 x114)) (x2 (x141 x41 x117)) (x49 (x141 x117 x41)) (x107 (x141 x117 x117)) (x153 (x141 x114 x108)) (x148 (x141 x117 x51)) (x35 (x141 x114 x114)) (x32 (x141 x114 x117)) (x120 (x141 x51 x108)) (x53 (x141 x108 x108)) (x18 (x141 x51 x41)) (x94 (x141 x117 x114)) (x6 (x141 x51 x117)) (x157 (x141 x114 x41)) (x62 (x141 x114 x51)) (x34 (x141 x108 x114)) (x71 (x141 x41 x108)) (x1 (x141 x117 x108)) (x146 (x141 x108 x51)) (x105 (x141 x51 x51)) (x76 (x141 x41 x51)) (x145 (x141 x108 x41)) (x60 (x141 x108 x117)) (x135 (x141 x41 x41))) (let ((x48 (= x105 x117)) (x87 (= x35 x41)) (x55 (= x76 x114)) (x61 (= x117 x148)) (x78 (= x60 x41)) (x24 (= x146 x41)) (x59 (= x62 x41)) (x13 (= x41 x75)) (x12 (= x117 x157)) (x23 (= x32 x117)) (x42 (= x62 x117)) (x88 (= x51 x135)) (x3 (= x107 x51)) (x38 (= x105 x51)) (x112 (= x53 x117)) (x16 (= x108 x107)) (x155 (= x148 x114)) (x95 (= x6 x41)) (x67 (= x34 x108)) (x26 (= x41 x32)) (x73 (= x18 x41)) (x84 (= x51 x146)) (x29 (= x108 x49)) (x80 (= x146 x117)) (x150 (= x41 x135)) (x142 (= x108 x1)) (x127 (= x53 x41)) (x56 (= x114 x107)) (x64 (= x76 x117)) (x121 (= x76 x41)) (x126 (= x71 x108)) (x22 (= x117 x75)) (x91 (= x34 x114)) (x103 (= x10 x117)) (x130 (= x51 x75)) (x8 (= x1 x51)) (x90 (= x108 x18)) (x133 (= x71 x114)) (x98 (= x108 x75)) (x36 (= x2 x117)) (x63 (= x41 x10)) (x101 (= x41 x107)) (x69 (= x117 x60)) (x4 (= x117 x135)) (x40 (= x34 x41)) (x100 (= x10 x114)) (x20 (= x51 x153)) (x116 (= x145 x41)) (x151 (= x157 x41)) (x27 (= x120 x51)) (x113 (= x117 x107)) (x21 (= x6 x117)) (x92 (= x51 x94)) (x57 (= x153 x108)) (x52 (= x51 x49)) (x110 (= x157 x114)) (x111 (= x51 x60)) (x89 (= x117 x145)) (x118 (= x108 x32)) (x47 (= x117 x35)) (x154 (= x117 x18)) (x140 (= x51 x148)) (x65 (= x120 x108)) (x137 (= x114 x94)) (x39 (= x114 x32)) (x149 (= x146 x114)) (x128 (= x108 x6)) (x134 (= x71 x41)) (x37 (= x114 x75)) (x125 (= x108 x53)) (x136 (= x145 x51)) (x138 (= x41 x2)) (x104 (= x153 x41)) (x9 (= x120 x114)) (x19 (= x51 x157)) (x86 (= x120 x117)) (x96 (= x32 x51)) (x119 (= x108 x2)) (x50 (= x1 x117)) (x45 (= x2 x51)) (x74 (= x62 x114)) (x106 (= x6 x51)) (x158 (= x114 x49)) (x68 (= x18 x114)) (x123 (= x51 x18)) (x83 (= x105 x114)) (x102 (= x49 x117)) (x30 (= x114 x135)) (x122 (= x35 x114)) (x11 (= x94 x41)) (x144 (= x108 x62)) (x46 (= x105 x108)) (x156 (= x108 x157)) (x58 (= x145 x108)) (x81 (= x108 x10)) (x115 (= x114 x6)) (x99 (= x51 x10)) (x109 (= x71 x51)) (x159 (= x41 x120)) (x14 (= x94 x117)) (x33 (= x35 x51)) (x15 (= x41 x105)) (x66 (= x114 x145)) (x72 (= x41 x49)) (x152 (= x114 x1)) (x31 (= x53 x51)) (x131 (= x114 x2)) (x5 (= x108 x60)) (x44 (= x51 x62)) (x143 (= x34 x117)) (x79 (= x41 x1)) (x28 (= x108 x135)) (x17 (= x35 x108)) (x7 (= x108 x148)) (x85 (= x148 x41)) (x124 (= x153 x114)) (x93 (= x114 x53)) (x70 (= x117 x153)) (x97 (= x60 x114)) (x77 (= x51 x76)) (x54 (= x94 x108)) (x82 (= x51 x34)) (x147 (= x117 x71)) (x25 (= x146 x108)) (x129 (= x76 x108))) (and (and (or (or (and x28 x28) (or (or (or (and x129 x90) (and x98 x156)) (and x119 x29)) (and x126 x58))) (or (or (or (or (or (or (and x128 x7) (or (and x144 x81) (and x46 x46))) (and x25 x65)) (and x90 x129)) (or (or (or (or (and x17 x17) (and x81 x144)) (and x118 x54)) (and x67 x57)) (and x98 x156))) (or (or (or (and x16 x16) (or (and x118 x54) (and x128 x7))) (and x142 x5)) (and x119 x29))) (or (and x126 x58) (or (and x125 x125) (or (or (and x65 x25) (and x67 x57)) (and x5 x142)))))) (and (and (or (or (or (or (or (or (and x82 x20) (and x84 x27)) (and x111 x8)) (and x31 x31)) (and x109 x136)) (or (or (or (or (or (and x106 x140) (or (and x38 x38) (and x44 x99))) (and x84 x27)) (and x123 x77)) (or (or (or (or (and x99 x44) (and x33 x33)) (and x92 x96)) (and x20 x82)) (and x130 x19))) (or (or (and x111 x8) (or (or (and x92 x96) (and x106 x140)) (and x3 x3))) (and x52 x45)))) (or (and x88 x88) (or (and x109 x136) (or (or (and x77 x123) (and x130 x19)) (and x52 x45))))) (or (or (and x30 x30) (or (and x133 x66) (or (or (and x110 x37) (and x68 x55)) (and x158 x131)))) (or (or (and x133 x66) (or (and x93 x93) (or (and x97 x152) (or (and x149 x9) (and x124 x91))))) (or (or (or (and x110 x37) (or (or (and x39 x137) (or (and x100 x74) (and x122 x122))) (and x91 x124))) (or (and x68 x55) (or (and x9 x149) (or (or (and x100 x74) (and x83 x83)) (and x155 x115))))) (or (or (or (and x56 x56) (or (and x39 x137) (and x155 x115))) (and x152 x97)) (and x158 x131)))))) (or (or (or (and x147 x89) (or (and x112 x112) (or (or (and x80 x86) (and x70 x143)) (and x69 x50)))) (or (or (or (or (or (or (and x42 x103) (and x47 x47)) (and x23 x14)) (and x70 x143)) (and x22 x12)) (or (and x154 x64) (or (and x86 x80) (or (and x21 x61) (or (and x48 x48) (and x42 x103)))))) (or (and x102 x36) (or (or (or (and x21 x61) (and x14 x23)) (and x113 x113)) (and x50 x69))))) (or (and x4 x4) (or (or (or (and x12 x22) (and x64 x154)) (and x102 x36)) (and x147 x89)))))) (or (or (or (or (or (or (or (or (and x63 x59) (and x15 x15)) (and x85 x95)) (and x159 x24)) (and x121 x73)) (or (and x151 x13) (or (and x40 x104) (or (or (and x63 x59) (and x87 x87)) (and x26 x11))))) (or (and x138 x72) (or (and x79 x78) (or (or (and x26 x11) (and x85 x95)) (and x101 x101))))) (or (or (or (and x79 x78) (or (and x104 x40) (and x24 x159))) (and x127 x127)) (and x134 x116))) (or (and x150 x150) (or (and x134 x116) (or (or (and x13 x151) (and x73 x121)) (and x72 x138)))))))))
(assert (or (or (or (or (and (not (= x41 (x141 x114 (x141 x114 x41)))) (and (and (and (not (= (x141 x114 (x141 x114 x114)) x114)) (not (= x51 (x141 x114 (x141 x114 x51))))) (not (= x117 (x141 x114 (x141 x114 x117))))) (not (= x108 (x141 x114 (x141 x114 x108)))))) (and (and (and (and (not (= (x141 x51 (x141 x51 x51)) x51)) (not (= (x141 x51 (x141 x51 x114)) x114))) (not (= (x141 x51 (x141 x51 x117)) x117))) (not (= (x141 x51 (x141 x51 x108)) x108))) (not (= x41 (x141 x51 (x141 x51 x41)))))) (and (and (not (= x108 (x141 x117 (x141 x117 x108)))) (and (not (= x117 (x141 x117 (x141 x117 x117)))) (and (not (= x114 (x141 x117 (x141 x117 x114)))) (not (= x51 (x141 x117 (x141 x117 x51))))))) (not (= x41 (x141 x117 (x141 x117 x41)))))) (and (and (not (= (x141 x108 (x141 x108 x108)) x108)) (and (not (= x117 (x141 x108 (x141 x108 x117)))) (and (not (= x114 (x141 x108 (x141 x108 x114)))) (not (= (x141 x108 (x141 x108 x51)) x51))))) (not (= (x141 x108 (x141 x108 x41)) x41)))) (and (not (= x41 (x141 x41 (x141 x41 x41)))) (and (and (and (not (= (x141 x41 (x141 x41 x51)) x51)) (not (= x114 (x141 x41 (x141 x41 x114))))) (not (= (x141 x41 (x141 x41 x117)) x117))) (not (= (x141 x41 (x141 x41 x108)) x108))))))
(assert (and (not (= (x141 x41 x41) x41)) (and (and (not (= (x141 x117 x117) x117)) (and (not (= (x141 x51 x51) x51)) (not (= x114 (x141 x114 x114))))) (not (= x108 (x141 x108 x108))))))
(assert (not (and (and (and (= x51 (x141 x41 x117)) (and (and (= x108 (x141 x41 x114)) (and (and (and (= x41 (x141 x108 x117)) (and (and (= x114 (x141 x108 x114)) (and (= x41 (x141 x117 x41)) (and (= (x141 x117 x108) x114) (and (= (x141 x117 x117) x108) (and (and (and (and (and (and (and (and (and (= (x141 x114 x108) x108) (and (= x117 (x141 x114 x117)) (and (= (x141 x114 x51) x114) (= (x141 x114 x114) x41)))) (= (x141 x114 x41) x51)) (= x51 (x141 x51 x114))) (= (x141 x51 x51) x41)) (= x114 (x141 x51 x117))) (= (x141 x51 x108) x117)) (= x108 (x141 x51 x41))) (= (x141 x117 x114) x117)) (= (x141 x117 x51) x51)))))) (= (x141 x108 x51) x108))) (= (x141 x108 x108) x51)) (= (x141 x108 x41) x117))) (= x117 (x141 x41 x51)))) (= x41 (x141 x41 x108))) (= (x141 x41 x41) x114))))
(assert (or (or (or (and (not (= x117 (x141 (x141 x41 x117) x41))) (and (not (= (x141 (x141 x108 x117) x108) x117)) (and (and (not (= x117 (x141 (x141 x51 x117) x51))) (not (= (x141 (x141 x114 x117) x114) x117))) (not (= (x141 (x141 x117 x117) x117) x117))))) (or (and (and (and (not (= (x141 (x141 x117 x114) x117) x114)) (and (not (= x114 (x141 (x141 x51 x114) x51))) (not (= (x141 (x141 x114 x114) x114) x114)))) (not (= x114 (x141 (x141 x108 x114) x108)))) (not (= x114 (x141 (x141 x41 x114) x41)))) (and (and (not (= (x141 (x141 x108 x51) x108) x51)) (and (and (not (= x51 (x141 (x141 x114 x51) x114))) (not (= x51 (x141 (x141 x51 x51) x51)))) (not (= (x141 (x141 x117 x51) x117) x51)))) (not (= (x141 (x141 x41 x51) x41) x51))))) (and (not (= (x141 (x141 x41 x108) x41) x108)) (and (and (and (not (= x108 (x141 (x141 x51 x108) x51))) (not (= x108 (x141 (x141 x114 x108) x114)))) (not (= x108 (x141 (x141 x117 x108) x117)))) (not (= x108 (x141 (x141 x108 x108) x108)))))) (and (and (not (= (x141 (x141 x108 x41) x108) x41)) (and (and (not (= x41 (x141 (x141 x114 x41) x114))) (not (= x41 (x141 (x141 x51 x41) x51)))) (not (= x41 (x141 (x141 x117 x41) x117))))) (not (= x41 (x141 (x141 x41 x41) x41))))))
(assert (or (or (and (not (= (x141 x41 x108) x41)) (and (and (not (= (x141 x117 x108) x117)) (and (not (= (x141 x114 x108) x114)) (not (= (x141 x51 x108) x51)))) (not (= (x141 x108 x108) x108)))) (or (or (and (and (not (= (x141 x108 x51) x108)) (and (not (= x117 (x141 x117 x51))) (and (not (= x51 (x141 x51 x51))) (not (= (x141 x114 x51) x114))))) (not (= x41 (x141 x41 x51)))) (and (not (= (x141 x41 x114) x41)) (and (not (= x108 (x141 x108 x114))) (and (not (= (x141 x117 x114) x117)) (and (not (= x51 (x141 x51 x114))) (not (= (x141 x114 x114) x114))))))) (and (and (and (not (= x117 (x141 x117 x117))) (and (not (= x114 (x141 x114 x117))) (not (= x51 (x141 x51 x117))))) (not (= (x141 x108 x117) x108))) (not (= (x141 x41 x117) x41))))) (and (and (not (= (x141 x108 x41) x108)) (and (and (not (= (x141 x51 x41) x51)) (not (= x114 (x141 x114 x41)))) (not (= x117 (x141 x117 x41))))) (not (= (x141 x41 x41) x41)))))
(assert (and (and (not (= x117 x41)) (and (and (not (= x51 x41)) (and (and (and (and (and (not (= x114 x51)) (not (= x117 x114))) (not (= x108 x114))) (not (= x41 x114))) (not (= x117 x51))) (not (= x51 x108)))) (not (= x108 x117)))) (not (= x108 x41))))
(assert (let ((x110 (x141 x117 x108)) (x83 (x141 x108 x114)) (x131 (x141 x114 x41)) (x30 (x141 x41 x41)) (x122 (x141 x114 x114)) (x155 (x141 x51 x51)) (x9 (x141 x117 x117)) (x39 (x141 x114 x51)) (x152 (x141 x41 x117)) (x158 (x141 x51 x41)) (x91 (x141 x41 x51)) (x115 (x141 x117 x51)) (x124 (x141 x114 x117)) (x74 (x141 x117 x114)) (x149 (x141 x51 x117)) (x100 (x141 x51 x114)) (x93 (x141 x114 x108)) (x68 (x141 x41 x108)) (x133 (x141 x117 x41)) (x137 (x141 x41 x114)) (x56 (x141 x108 x51)) (x37 (x141 x51 x108)) (x66 (x141 x108 x41)) (x97 (x141 x108 x117)) (x55 (x141 x108 x108))) (and (and (and (and (and (and (not (= x158 x37)) (and (and (and (not (= x158 x155)) (and (and (and (and (and (not (= x155 x100)) (not (= x100 x149))) (not (= x100 x37))) (not (= x158 x100))) (not (= x155 x149))) (not (= x155 x37)))) (not (= x37 x149))) (not (= x149 x158)))) (and (not (= x131 x93)) (and (and (not (= x93 x124)) (and (and (not (= x39 x93)) (and (and (not (= x131 x122)) (and (and (not (= x124 x122)) (not (= x39 x122))) (not (= x93 x122)))) (not (= x39 x124)))) (not (= x39 x131)))) (not (= x131 x124))))) (and (and (not (= x9 x133)) (and (not (= x9 x110)) (and (and (and (and (and (not (= x74 x110)) (and (not (= x9 x74)) (not (= x74 x115)))) (not (= x74 x133))) (not (= x115 x9))) (not (= x115 x110))) (not (= x133 x115))))) (not (= x110 x133)))) (and (not (= x55 x66)) (and (not (= x66 x97)) (and (and (not (= x56 x66)) (and (not (= x56 x55)) (and (and (not (= x83 x66)) (and (not (= x83 x55)) (and (not (= x56 x83)) (not (= x83 x97))))) (not (= x56 x97))))) (not (= x97 x55)))))) (and (and (not (= x30 x152)) (and (and (not (= x30 x91)) (and (and (and (and (and (not (= x91 x137)) (not (= x152 x137))) (not (= x137 x68))) (not (= x137 x30))) (not (= x91 x152))) (not (= x91 x68)))) (not (= x68 x152)))) (not (= x68 x30)))) (and (and (and (not (= x55 x68)) (and (not (= x68 x110)) (and (not (= x55 x110)) (and (not (= x68 x37)) (and (not (= x37 x55)) (and (not (= x37 x110)) (and (and (and (not (= x110 x93)) (not (= x37 x93))) (not (= x93 x55))) (not (= x93 x68))))))))) (and (and (not (= x152 x97)) (and (and (not (= x97 x9)) (and (not (= x152 x149)) (and (not (= x149 x97)) (and (and (not (= x152 x124)) (and (and (not (= x149 x124)) (not (= x9 x124))) (not (= x97 x124)))) (not (= x9 x149)))))) (not (= x9 x152)))) (and (and (and (not (= x91 x115)) (and (and (and (not (= x56 x155)) (and (not (= x115 x155)) (and (and (and (not (= x39 x115)) (not (= x39 x155))) (not (= x39 x56))) (not (= x39 x91))))) (not (= x155 x91))) (not (= x115 x56)))) (not (= x56 x91))) (and (and (not (= x137 x74)) (and (and (and (and (not (= x100 x74)) (and (and (and (not (= x122 x74)) (not (= x100 x122))) (not (= x83 x122))) (not (= x137 x122)))) (not (= x83 x100))) (not (= x100 x137))) (not (= x83 x74)))) (not (= x83 x137)))))) (and (and (and (and (not (= x30 x158)) (and (not (= x158 x66)) (and (and (and (not (= x66 x131)) (and (not (= x131 x133)) (not (= x158 x131)))) (not (= x30 x131))) (not (= x158 x133))))) (not (= x133 x66))) (not (= x30 x133))) (not (= x66 x30)))))))
(assert (and (and (and (and (not (= x51 (x141 (x141 x51 x51) x51))) (not (= x114 (x141 (x141 x114 x114) x114)))) (not (= x117 (x141 (x141 x117 x117) x117)))) (not (= (x141 (x141 x108 x108) x108) x108))) (not (= (x141 (x141 x41 x41) x41) x41))))
(assert (or (= (x141 x41 (x141 x41 x41)) x41) (or (= x108 (x141 x108 (x141 x108 x108))) (or (or (= (x141 x114 (x141 x114 x114)) x114) (= x51 (x141 x51 (x141 x51 x51)))) (= x117 (x141 x117 (x141 x117 x117)))))))
(assert (let ((x83 (x141 x108 x108)) (x137 (x141 x41 x41)) (x74 (x141 x117 x117)) (x100 (x141 x51 x51)) (x122 (x141 x114 x114))) (or (and (not (= x41 x137)) (and (not (= x83 x41)) (and (and (not (= x122 x41)) (not (= x41 x100))) (not (= x41 x74))))) (or (or (and (not (= x117 x137)) (and (and (and (not (= x117 x122)) (not (= x100 x117))) (not (= x117 x74))) (not (= x117 x83)))) (or (and (not (= x137 x51)) (and (and (not (= x74 x51)) (and (not (= x100 x51)) (not (= x51 x122)))) (not (= x83 x51)))) (and (and (and (not (= x114 x74)) (and (not (= x114 x122)) (not (= x100 x114)))) (not (= x83 x114))) (not (= x114 x137))))) (and (not (= x108 x137)) (and (not (= x83 x108)) (and (not (= x108 x74)) (and (not (= x122 x108)) (not (= x108 x100))))))))))
(assert (and (= (x141 x51 x41) x108) (and (= (x141 x41 x51) x117) (and (= (x141 x41 x41) x114) (= (x141 x114 x41) x51)))))
(assert (not (and (and (and (and (= x117 (x141 x41 x51)) (and (and (and (and (and (and (and (= x117 (x141 x117 x41)) (and (= (x141 x117 x108) x41) (and (and (= (x141 x117 x51) x114) (and (and (= x108 (x141 x51 x41)) (and (and (= x117 (x141 x51 x117)) (and (= x41 (x141 x51 x51)) (and (= (x141 x51 x114) x114) (and (and (= x114 (x141 x114 x108)) (and (= x41 (x141 x114 x117)) (and (= (x141 x114 x114) x117) (= x108 (x141 x114 x51))))) (= x51 (x141 x114 x41)))))) (= (x141 x51 x108) x51))) (= (x141 x117 x114) x51))) (= x108 (x141 x117 x117))))) (= (x141 x108 x114) x108)) (= x51 (x141 x108 x51))) (= x114 (x141 x108 x117))) (= x117 (x141 x108 x108))) (= x41 (x141 x108 x41))) (= (x141 x41 x114) x41))) (= (x141 x41 x117) x51)) (= (x141 x41 x108) x108)) (= (x141 x41 x41) x114))))
(check-sat)
(exit)
